0
Node Left Objective IInf Best_Integer Best_Bound ItCnt Gap
0+ 0 nan nan 136.4723 0.0000 nan 100.00%
0+ 0 nan nan 99.1655 0.0000 nan 100.00%
0 0 1.0620 26 99.1655 1.0620 177 98.93%
0 0 4.8180 28 99.1655 Disjcuts:20 215 95.14%
0 0 8.9384 34 99.1655 Disjcuts:26 257 90.99%
0 0 10.5016 35 99.1655 Disjcuts:22 287 89.41%
0+ 0 nan nan 84.5865 10.5016 nan 87.58%
0 0 12.7286 34 84.5865 Disjcuts:25 333 84.95%
0 0 13.8644 33 84.5865 Disjcuts:10 359 83.61%
0+ 0 nan nan 83.7166 13.8644 nan 83.44%
0 0 13.9905 34 83.7166 Disjcuts:2 367 83.29%
0+ 0 nan nan 71.6990 13.9905 nan 80.49%
0 2 13.9905 34 71.6990 14.0200 367 80.45%
CPXPARAM_MIP_Cuts_Disjunctive-MIRCut:Disjunctive 0
CPXPARAM_MIP_Cuts_Disjunctive-MIRCut:MIRCut 21
1
Node Left Objective IInf Best_Integer Best_Bound ItCnt Gap
0+ 0 nan nan 136.4723 0.0000 nan 100.00%
0+ 0 nan nan 99.1655 0.0000 nan 100.00%
0 0 0.0000 27 99.1655 0.0000 131 100.00%
0+ 0 nan nan 86.2827 0.0000 nan 100.00%
0 0 0.0000 20 86.2827 Disjcuts:1 134 100.00%
0+ 0 nan nan 77.7223 0.0000 nan 100.00%
0 0 0.0000 21 77.7223 Disjcuts:11 163 100.00%
0 0 0.0000 21 77.7223 Disjcuts:2 172 100.00%
0+ 0 nan nan 49.9838 0.0000 nan 100.00%
0+ 0 nan nan 43.8474 0.0000 nan 100.00%
0 2 0.0000 20 43.8474 0.0000 172 100.00%
CPXPARAM_MIP_Cuts_Disjunctive-MIRCut:Disjunctive 0
CPXPARAM_MIP_Cuts_Disjunctive-MIRCut:MIRCut 0
2
Node Left Objective IInf Best_Integer Best_Bound ItCnt Gap
0+ 0 nan nan 136.4723 0.0000 nan 100.00%
0+ 0 nan nan 69.8576 0.0000 nan 100.00%
0 0 0.0000 23 69.8576 0.0000 131 100.00%
0 0 0.0000 24 69.8576 Disjcuts:16 170 100.00%
0 0 0.3852 26 69.8576 Disjcuts:10 241 99.45%
0+ 0 nan nan 69.3509 0.3852 nan 99.44%
0 0 2.4776 27 69.3509 Disjcuts:25 289 96.43%
0 0 4.0023 28 69.3509 Disjcuts:17 328 94.23%
0 0 5.8760 29 69.3509 Disjcuts:17 375 91.53%
0+ 0 nan nan 59.6097 5.8760 nan 90.14%
0+ 0 nan nan 47.6106 5.8760 nan 87.66%
0 2 5.8760 29 47.6106 5.9447 375 87.51%
CPXPARAM_MIP_Cuts_Disjunctive-MIRCut:Disjunctive 0
CPXPARAM_MIP_Cuts_Disjunctive-MIRCut:MIRCut 18
3
Node Left Objective IInf Best_Integer Best_Bound ItCnt Gap
0+ 0 nan nan 136.4723 0.0000 nan 100.00%
0+ 0 nan nan 69.8576 0.0000 nan 100.00%
0 0 0.0000 23 69.8576 0.0000 128 100.00%
0+ 0 nan nan 52.6772 0.0000 nan 100.00%
0+ 0 nan nan 20.2193 0.0000 nan 100.00%
0+ 0 nan nan 20.1192 0.0000 nan 100.00%
0 2 0.0000 16 20.1192 0.0000 128 100.00%
CPXPARAM_MIP_Cuts_Disjunctive-MIRCut:Disjunctive 0
CPXPARAM_MIP_Cuts_Disjunctive-MIRCut:MIRCut 0
4
Node Left Objective IInf Best_Integer Best_Bound ItCnt Gap
0+ 0 nan nan 115.1924 0.0000 nan 100.00%
0+ 0 nan nan 108.1598 0.0000 nan 100.00%
0+ 0 nan nan 98.2525 0.0000 nan 100.00%
0 0 10.9280 24 98.2525 10.9280 158 88.88%
0 0 15.1617 25 98.2525 Disjcuts:14 188 84.57%
0 0 16.6520 26 98.2525 Disjcuts:15 210 83.05%
0+ 0 nan nan 87.4798 16.6520 nan 80.96%
0 0 18.5010 29 87.4798 Disjcuts:17 243 78.85%
0 0 19.6175 28 87.4798 Disjcuts:23 291 77.57%
0 0 20.9631 29 87.4798 Disjcuts:10 320 76.04%
0 0 20.9997 28 87.4798 Disjcuts:1 324 75.99%
0+ 0 nan nan 63.1581 20.9997 nan 66.75%
0 2 20.9997 28 63.1581 21.2733 324 66.32%
CPXPARAM_MIP_Cuts_Disjunctive-MIRCut:Disjunctive 0
CPXPARAM_MIP_Cuts_Disjunctive-MIRCut:MIRCut 17
5
Node Left Objective IInf Best_Integer Best_Bound ItCnt Gap
0+ 0 nan nan 115.1924 0.0000 nan 100.00%
0+ 0 nan nan 108.1598 0.0000 nan 100.00%
0+ 0 nan nan 79.8300 0.0000 nan 100.00%
0 0 0.0000 27 79.8300 0.0000 129 100.00%
0+ 0 nan nan 77.7750 0.0000 nan 100.00%
0+ 0 nan nan 68.9412 0.0000 nan 100.00%
0+ 0 nan nan 42.0049 0.0000 nan 100.00%
0 2 0.0000 20 42.0049 0.0000 129 100.00%
CPXPARAM_MIP_Cuts_Disjunctive-MIRCut:Disjunctive 0
CPXPARAM_MIP_Cuts_Disjunctive-MIRCut:MIRCut 0
6
Node Left Objective IInf Best_Integer Best_Bound ItCnt Gap
0+ 0 nan nan 115.1924 0.0000 nan 100.00%
0+ 0 nan nan 81.9438 0.0000 nan 100.00%
0 0 10.7107 19 81.9438 10.7107 153 86.93%
0+ 0 nan nan 80.6567 10.7107 nan 86.72%
0 0 14.4935 22 80.6567 Disjcuts:13 177 82.03%
0 0 16.7175 24 80.6567 Disjcuts:17 205 79.27%
0 0 18.7417 25 80.6567 Disjcuts:10 234 76.76%
0 0 20.5748 24 80.6567 Disjcuts:8 258 74.49%
0 0 22.2565 24 80.6567 Disjcuts:13 280 72.41%
0+ 0 nan nan 68.7487 22.2565 nan 67.63%
0+ 0 nan nan 50.7775 22.2565 nan 56.17%
0 2 22.2565 24 50.7775 22.2823 280 56.12%
CPXPARAM_MIP_Cuts_Disjunctive-MIRCut:Disjunctive 0
CPXPARAM_MIP_Cuts_Disjunctive-MIRCut:MIRCut 13
7
Node Left Objective IInf Best_Integer Best_Bound ItCnt Gap
0+ 0 nan nan 115.1924 0.0000 nan 100.00%
0+ 0 nan nan 81.9438 0.0000 nan 100.00%
0 0 0.0000 23 81.9438 0.0000 123 100.00%
0+ 0 nan nan 62.3577 0.0000 nan 100.00%
0+ 0 nan nan 41.4305 0.0000 nan 100.00%
0+ 0 nan nan 30.7090 0.0000 nan 100.00%
0 2 0.0000 16 30.7090 0.0000 123 100.00%
CPXPARAM_MIP_Cuts_Disjunctive-MIRCut:Disjunctive 0
CPXPARAM_MIP_Cuts_Disjunctive-MIRCut:MIRCut 0
8
Node Left Objective IInf Best_Integer Best_Bound ItCnt Gap
0+ 0 nan nan 131.6037 0.0000 nan 100.00%
0+ 0 nan nan 111.2422 0.0000 nan 100.00%
0+ 0 nan nan 109.8445 0.0000 nan 100.00%
0 0 16.8750 23 109.8445 16.8750 153 84.64%
0 0 18.1847 26 109.8445 Disjcuts:11 176 83.45%
0 0 21.0042 30 109.8445 Disjcuts:22 217 80.88%
0 0 21.8488 32 109.8445 Disjcuts:15 243 80.11%
0 0 24.6086 29 109.8445 Disjcuts:12 277 77.60%
0 0 25.9730 30 109.8445 Disjcuts:12 316 76.35%
0 0 26.6322 28 109.8445 Cuts:6 339 75.75%
0 0 26.7470 25 109.8445 MIRcuts:1 352 75.65%
0 0 26.7909 28 109.8445 Disjcuts:1 365 75.61%
0+ 0 nan nan 85.8619 26.7909 nan 68.80%
0 2 26.7909 28 85.8619 26.8475 365 68.73%
CPXPARAM_MIP_Cuts_Disjunctive-MIRCut:Disjunctive 1
CPXPARAM_MIP_Cuts_Disjunctive-MIRCut:MIRCut 13
9
Node Left Objective IInf Best_Integer Best_Bound ItCnt Gap
0+ 0 nan nan 131.6037 0.0000 nan 100.00%
0+ 0 nan nan 111.2422 0.0000 nan 100.00%
0 0 0.0000 27 111.2422 0.0000 128 100.00%
0+ 0 nan nan 94.5662 0.0000 nan 100.00%
0 0 0.0000 23 94.5662 Disjcuts:5 140 100.00%
0 0 0.0000 23 94.5662 Disjcuts:20 173 100.00%
0+ 0 nan nan 72.5002 0.0000 nan 100.00%
0+ 0 nan nan 60.8576 0.0000 nan 100.00%
0 2 0.0000 21 60.8576 0.0000 173 100.00%
CPXPARAM_MIP_Cuts_Disjunctive-MIRCut:Disjunctive 0
CPXPARAM_MIP_Cuts_Disjunctive-MIRCut:MIRCut 1
10
Node Left Objective IInf Best_Integer Best_Bound ItCnt Gap
0+ 0 nan nan 131.6037 0.0000 nan 100.00%
0+ 0 nan nan 99.6733 0.0000 nan 100.00%
0 0 0.0000 23 99.6733 0.0000 139 100.00%
0 0 0.8420 27 99.6733 Disjcuts:20 204 99.16%
0 0 4.8430 28 99.6733 Disjcuts:24 244 95.14%
0 0 6.3794 30 99.6733 Disjcuts:10 265 93.60%
0 0 8.3443 26 99.6733 Disjcuts:13 301 91.63%
0 0 10.4672 28 99.6733 Disjcuts:21 344 89.50%
0 0 10.5001 29 99.6733 Disjcuts:2 351 89.47%
0+ 0 nan nan 79.6692 10.5001 nan 86.82%
0+ 0 nan nan 78.5398 10.5001 nan 86.63%
0+ 0 nan nan 77.7013 10.5001 nan 86.49%
0 2 10.5001 29 77.7013 10.5353 351 86.44%
CPXPARAM_MIP_Cuts_Disjunctive-MIRCut:Disjunctive 0
CPXPARAM_MIP_Cuts_Disjunctive-MIRCut:MIRCut 18
11
Node Left Objective IInf Best_Integer Best_Bound ItCnt Gap
0+ 0 nan nan 131.6037 0.0000 nan 100.00%
0+ 0 nan nan 99.6733 0.0000 nan 100.00%
0 0 0.0000 23 99.6733 0.0000 134 100.00%
0+ 0 nan nan 80.1830 0.0000 nan 100.00%
0 0 0.0000 16 80.1830 Disjcuts:3 138 100.00%
0+ 0 nan nan 71.7672 0.0000 nan 100.00%
0 0 0.0000 16 71.7672 Disjcuts:11 170 100.00%
0 0 0.0000 17 71.7672 Disjcuts:9 199 100.00%
0+ 0 nan nan 71.3485 0.0000 nan 100.00%
0+ 0 nan nan 31.3453 0.0000 nan 100.00%
0 2 0.0000 17 31.3453 0.0000 199 100.00%
CPXPARAM_MIP_Cuts_Disjunctive-MIRCut:Disjunctive 0
CPXPARAM_MIP_Cuts_Disjunctive-MIRCut:MIRCut 3
12
Node Left Objective IInf Best_Integer Best_Bound ItCnt Gap
0+ 0 nan nan 110.3567 0.0000 nan 100.00%
0+ 0 nan nan 96.6816 0.0000 nan 100.00%
0 0 0.0000 27 96.6816 0.0000 148 100.00%
0 0 7.0414 29 96.6816 Disjcuts:20 217 92.72%
0 0 10.3622 31 96.6816 Disjcuts:16 252 89.28%
0 0 12.1970 30 96.6816 Disjcuts:15 273 87.38%
0 0 13.4215 32 96.6816 Disjcuts:16 300 86.12%
0 0 14.8428 34 96.6816 Disjcuts:17 337 84.65%
0 0 15.1610 34 96.6816 Disjcuts:3 357 84.32%
0+ 0 nan nan 87.4819 15.1610 nan 82.67%
0+ 0 nan nan 82.6218 15.1610 nan 81.65%
0+ 0 nan nan 63.6853 15.1610 nan 76.19%
0 2 15.1610 34 63.6853 15.2386 357 76.07%
CPXPARAM_MIP_Cuts_Disjunctive-MIRCut:Disjunctive 0
CPXPARAM_MIP_Cuts_Disjunctive-MIRCut:MIRCut 19
13
Node Left Objective IInf Best_Integer Best_Bound ItCnt Gap
0+ 0 nan nan 110.3567 0.0000 nan 100.00%
0+ 0 nan nan 96.6816 0.0000 nan 100.00%
0 0 0.0000 27 96.6816 0.0000 129 100.00%
0+ 0 nan nan 73.2319 0.0000 nan 100.00%
0 0 0.0000 21 73.2319 Disjcuts:3 135 100.00%
0 0 0.0000 21 73.2319 Disjcuts:13 170 100.00%
0 0 0.0000 21 73.2319 Disjcuts:11 208 100.00%
0+ 0 nan nan 65.9599 0.0000 nan 100.00%
0+ 0 nan nan 56.9340 0.0000 nan 100.00%
0 2 0.0000 20 56.9340 0.0000 208 100.00%
CPXPARAM_MIP_Cuts_Disjunctive-MIRCut:Disjunctive 0
CPXPARAM_MIP_Cuts_Disjunctive-MIRCut:MIRCut 0
14
Node Left Objective IInf Best_Integer Best_Bound ItCnt Gap
0+ 0 nan nan 110.3567 0.0000 nan 100.00%
0+ 0 nan nan 82.1268 0.0000 nan 100.00%
0 0 0.0000 23 82.1268 0.0000 134 100.00%
0 0 2.8572 25 82.1268 Disjcuts:20 212 96.52%
0 0 7.4150 24 82.1268 Disjcuts:19 240 90.97%
0 0 8.7535 27 82.1268 Disjcuts:12 259 89.34%
0 0 9.9181 27 82.1268 Disjcuts:9 277 87.92%
0 0 11.0202 28 82.1268 Disjcuts:10 300 86.58%
0+ 0 nan nan 62.4223 11.0202 nan 82.35%
0+ 0 nan nan 58.5652 11.0202 nan 81.18%
0 2 11.0202 28 58.5652 11.0698 300 81.10%
CPXPARAM_MIP_Cuts_Disjunctive-MIRCut:Disjunctive 0
CPXPARAM_MIP_Cuts_Disjunctive-MIRCut:MIRCut 16
15
Node Left Objective IInf Best_Integer Best_Bound ItCnt Gap
0+ 0 nan nan 110.3567 0.0000 nan 100.00%
0+ 0 nan nan 82.1268 0.0000 nan 100.00%
0 0 0.0000 23 82.1268 0.0000 126 100.00%
0+ 0 nan nan 37.4097 0.0000 nan 100.00%
0 0 0.0000 17 37.4097 Disjcuts:3 133 100.00%
0 0 0.0000 16 37.4097 Disjcuts:14 159 100.00%
0 0 0.0000 17 37.4097 Disjcuts:9 182 100.00%
0+ 0 nan nan 31.4401 0.0000 nan 100.00%
0+ 0 nan nan 31.2947 0.0000 nan 100.00%
0 2 0.0000 16 31.2947 0.0000 182 100.00%
CPXPARAM_MIP_Cuts_Disjunctive-MIRCut:Disjunctive 0
CPXPARAM_MIP_Cuts_Disjunctive-MIRCut:MIRCut 1
16
Node Left Objective IInf Best_Integer Best_Bound ItCnt Gap
0+ 0 nan nan 109.2984 0.0000 nan 100.00%
0+ 0 nan nan 97.6971 0.0000 nan 100.00%
0 0 0.0000 27 97.6971 0.0000 150 100.00%
0 0 9.1171 30 97.6971 Disjcuts:21 198 90.67%
0 0 12.4055 32 97.6971 Disjcuts:24 251 87.30%
0 0 15.1051 30 97.6971 Disjcuts:13 289 84.54%
0 0 17.0191 32 97.6971 Disjcuts:19 315 82.58%
0 0 17.7013 31 97.6971 Disjcuts:13 340 81.88%
0 0 17.9526 32 97.6971 Disjcuts:4 361 81.62%
0+ 0 nan nan 68.2532 17.9526 nan 73.70%
0 2 17.9526 32 68.2532 17.9556 361 73.69%
CPXPARAM_MIP_Cuts_Disjunctive-MIRCut:Disjunctive 0
CPXPARAM_MIP_Cuts_Disjunctive-MIRCut:MIRCut 23
17
Node Left Objective IInf Best_Integer Best_Bound ItCnt Gap
0+ 0 nan nan 109.2984 0.0000 nan 100.00%
0+ 0 nan nan 97.6971 0.0000 nan 100.00%
0 0 0.0000 27 97.6971 0.0000 125 100.00%
0+ 0 nan nan 71.0845 0.0000 nan 100.00%
0 0 0.0000 21 71.0845 Disjcuts:1 130 100.00%
0+ 0 nan nan 59.5187 0.0000 nan 100.00%
0 0 0.0000 20 59.5187 Disjcuts:15 145 100.00%
0+ 0 nan nan 53.7459 0.0000 nan 100.00%
0 0 0.0000 22 53.7459 Disjcuts:12 180 100.00%
0+ 0 nan nan 50.3623 0.0000 nan 100.00%
0+ 0 nan nan 39.3701 0.0000 nan 100.00%
0 2 0.0000 20 39.3701 0.0000 180 100.00%
CPXPARAM_MIP_Cuts_Disjunctive-MIRCut:Disjunctive 0
CPXPARAM_MIP_Cuts_Disjunctive-MIRCut:MIRCut 0
18
Node Left Objective IInf Best_Integer Best_Bound ItCnt Gap
0+ 0 nan nan 109.2984 0.0000 nan 100.00%
0+ 0 nan nan 86.6088 0.0000 nan 100.00%
0 0 11.3010 19 86.6088 11.3010 155 86.95%
0 0 15.1289 21 86.6088 Disjcuts:16 182 82.53%
0 0 18.3300 23 86.6088 Disjcuts:17 209 78.84%
0 0 20.7340 23 86.6088 Disjcuts:13 246 76.06%
0 0 21.8606 26 86.6088 Disjcuts:12 280 74.76%
0 0 23.0757 26 86.6088 Disjcuts:15 307 73.36%
0+ 0 nan nan 63.3588 23.0757 nan 63.58%
0+ 0 nan nan 57.8705 23.0757 nan 60.13%
0 2 23.0757 26 57.8705 23.1208 307 60.05%
CPXPARAM_MIP_Cuts_Disjunctive-MIRCut:Disjunctive 0
CPXPARAM_MIP_Cuts_Disjunctive-MIRCut:MIRCut 20
19
Node Left Objective IInf Best_Integer Best_Bound ItCnt Gap
0+ 0 nan nan 109.2984 0.0000 nan 100.00%
0+ 0 nan nan 86.6088 0.0000 nan 100.00%
0 0 0.0000 23 86.6088 0.0000 119 100.00%
0+ 0 nan nan 49.5540 0.0000 nan 100.00%
0 0 0.0000 16 49.5540 Disjcuts:1 122 100.00%
0 0 0.0000 17 49.5540 Disjcuts:11 149 100.00%
0 0 0.0000 17 49.5540 Cuts:2 157 100.00%
0+ 0 nan nan 44.7741 0.0000 nan 100.00%
0+ 0 nan nan 31.7647 0.0000 nan 100.00%
0 2 0.0000 15 31.7647 0.0000 157 100.00%
CPXPARAM_MIP_Cuts_Disjunctive-MIRCut:Disjunctive 1
CPXPARAM_MIP_Cuts_Disjunctive-MIRCut:MIRCut 1
20
Node Left Objective IInf Best_Integer Best_Bound ItCnt Gap
0+ 0 nan nan 93.3792 0.0000 nan 100.00%
0+ 0 nan nan 84.6822 0.0000 nan 100.00%
0 0 0.0000 27 84.6822 0.0000 133 100.00%
0+ 0 nan nan 52.3615 0.0000 nan 100.00%
0 0 6.7946 27 52.3615 Disjcuts:19 216 87.02%
0 0 10.8006 29 52.3615 Disjcuts:21 257 79.37%
0 0 13.0445 28 52.3615 Disjcuts:17 290 75.09%
0 0 14.1714 26 52.3615 Disjcuts:18 330 72.94%
0 0 14.6578 30 52.3615 Disjcuts:15 364 72.01%
0+ 0 nan nan 49.4052 14.6578 nan 70.33%
0+ 0 nan nan 40.5743 14.6578 nan 63.87%
0 2 14.6578 30 40.5743 14.7070 364 63.75%
CPXPARAM_MIP_Cuts_Disjunctive-MIRCut:Disjunctive 0
CPXPARAM_MIP_Cuts_Disjunctive-MIRCut:MIRCut 15
21
Node Left Objective IInf Best_Integer Best_Bound ItCnt Gap
0+ 0 nan nan 93.3792 0.0000 nan 100.00%
0+ 0 nan nan 84.6822 0.0000 nan 100.00%
0 0 0.0000 27 84.6822 0.0000 121 100.00%
0+ 0 nan nan 33.7589 0.0000 nan 100.00%
0 0 0.0000 20 33.7589 Disjcuts:6 148 100.00%
0 0 0.0000 20 33.7589 Disjcuts:12 191 100.00%
0+ 0 nan nan 32.1043 0.0000 nan 100.00%
0 0 0.0000 20 32.1043 Cuts:4 201 100.00%
0+ 0 nan nan 23.6358 0.0000 nan 100.00%
0+ 0 nan nan 18.3705 0.0000 nan 100.00%
0+ 0 nan nan 16.6727 0.0000 nan 100.00%
0 2 0.0000 18 16.6727 0.0000 201 100.00%
CPXPARAM_MIP_Cuts_Disjunctive-MIRCut:Disjunctive 0
CPXPARAM_MIP_Cuts_Disjunctive-MIRCut:MIRCut 1
22
Node Left Objective IInf Best_Integer Best_Bound ItCnt Gap
0+ 0 nan nan 93.3792 0.0000 nan 100.00%
0+ 0 nan nan 77.4137 0.0000 nan 100.00%
0 0 0.0000 23 77.4137 0.0000 135 100.00%
0+ 0 nan nan 51.5425 0.0000 nan 100.00%
0 0 4.5025 23 51.5425 Disjcuts:14 167 91.26%
0 0 8.5706 25 51.5425 Disjcuts:17 207 83.37%
0 0 9.0487 23 51.5425 Disjcuts:8 233 82.44%
0 0 9.1375 24 51.5425 Disjcuts:3 250 82.27%
0 0 9.5430 23 51.5425 Disjcuts:5 290 81.49%
0 0 9.5710 23 51.5425 Disjcuts:1 296 81.43%
0+ 0 nan nan 51.0854 9.5710 nan 81.26%
0 0 9.5754 22 51.0854 Disjcuts:1 300 81.26%
0+ 0 nan nan 31.9872 9.5754 nan 70.06%
0+ 0 nan nan 30.8067 9.5754 nan 68.92%
0 2 9.5754 22 30.8067 9.6438 300 68.70%
CPXPARAM_MIP_Cuts_Disjunctive-MIRCut:Disjunctive 0
CPXPARAM_MIP_Cuts_Disjunctive-MIRCut:MIRCut 11
23
Node Left Objective IInf Best_Integer Best_Bound ItCnt Gap
0+ 0 nan nan 93.3792 0.0000 nan 100.00%
0+ 0 nan nan 77.4137 0.0000 nan 100.00%
0 0 0.0000 22 77.4137 0.0000 123 100.00%
0+ 0 nan nan 44.2766 0.0000 nan 100.00%
0+ 0 nan nan 39.2549 0.0000 nan 100.00%
0+ 0 nan nan 29.4715 0.0000 nan 100.00%
0+ 0 nan nan 24.9683 0.0000 nan 100.00%
0 2 0.0000 16 24.9683 0.0000 123 100.00%
CPXPARAM_MIP_Cuts_Disjunctive-MIRCut:Disjunctive 0
CPXPARAM_MIP_Cuts_Disjunctive-MIRCut:MIRCut 0
24
Node Left Objective IInf Best_Integer Best_Bound ItCnt Gap
0+ 0 nan nan 94.5045 0.0000 nan 100.00%
0+ 0 nan nan 83.7373 0.0000 nan 100.00%
0 0 0.0000 27 83.7373 0.0000 149 100.00%
0+ 0 nan nan 83.3613 0.0000 nan 100.00%
0 0 3.9655 28 83.3613 Disjcuts:17 205 95.24%
0 0 9.5352 27 83.3613 Disjcuts:24 256 88.56%
0 0 11.8582 30 83.3613 Disjcuts:13 296 85.77%
0 0 13.1372 29 83.3613 Disjcuts:11 332 84.24%
0+ 0 nan nan 72.3297 13.1372 nan 81.84%
0 0 13.6077 30 72.3297 Disjcuts:9 354 81.19%
0+ 0 nan nan 54.0266 13.6077 nan 74.81%
0+ 0 nan nan 44.4053 13.6077 nan 69.36%
0 2 13.6077 30 44.4053 13.7157 354 69.11%
CPXPARAM_MIP_Cuts_Disjunctive-MIRCut:Disjunctive 0
CPXPARAM_MIP_Cuts_Disjunctive-MIRCut:MIRCut 19
25
Node Left Objective IInf Best_Integer Best_Bound ItCnt Gap
0+ 0 nan nan 94.5045 0.0000 nan 100.00%
0+ 0 nan nan 83.7373 0.0000 nan 100.00%
0 0 0.0000 27 83.7373 0.0000 131 100.00%
0+ 0 nan nan 37.6521 0.0000 nan 100.00%
0 0 0.0000 19 37.6521 Disjcuts:1 143 100.00%
0 0 0.0000 19 37.6521 Disjcuts:7 172 100.00%
0 0 0.0000 19 37.6521 Disjcuts:10 190 100.00%
0+ 0 nan nan 34.0717 0.0000 nan 100.00%
0+ 0 nan nan 20.0970 0.0000 nan 100.00%
0 2 0.0000 19 20.0970 0.0000 190 100.00%
CPXPARAM_MIP_Cuts_Disjunctive-MIRCut:Disjunctive 0
CPXPARAM_MIP_Cuts_Disjunctive-MIRCut:MIRCut 4
26
Node Left Objective IInf Best_Integer Best_Bound ItCnt Gap
0+ 0 nan nan 94.5045 0.0000 nan 100.00%
0+ 0 nan nan 77.4984 0.0000 nan 100.00%
0 0 0.0000 23 77.4984 0.0000 128 100.00%
0+ 0 nan nan 57.4577 0.0000 nan 100.00%
0 0 4.1633 24 57.4577 Disjcuts:21 232 92.75%
0 0 10.1085 25 57.4577 Disjcuts:19 270 82.41%
0 0 11.0550 24 57.4577 Disjcuts:15 300 80.76%
0 0 11.7876 25 57.4577 Disjcuts:12 328 79.48%
0 0 13.3752 24 57.4577 Disjcuts:9 363 76.72%
0+ 0 nan nan 54.0819 13.3752 nan 75.27%
0+ 0 nan nan 41.4183 13.3752 nan 67.71%
0 2 13.3752 24 41.4183 13.3932 363 67.66%
CPXPARAM_MIP_Cuts_Disjunctive-MIRCut:Disjunctive 0
CPXPARAM_MIP_Cuts_Disjunctive-MIRCut:MIRCut 16
27
Node Left Objective IInf Best_Integer Best_Bound ItCnt Gap
0+ 0 nan nan 94.5045 0.0000 nan 100.00%
0+ 0 nan nan 77.4984 0.0000 nan 100.00%
0 0 0.0000 23 77.4984 0.0000 115 100.00%
0+ 0 nan nan 29.2294 0.0000 nan 100.00%
0+ 0 nan nan 18.5243 0.0000 nan 100.00%
0+ 0 nan nan 18.3372 0.0000 nan 100.00%
0+ 0 nan nan 10.2788 0.0000 nan 100.00%
0 2 0.0000 14 10.2788 0.0000 115 100.00%
CPXPARAM_MIP_Cuts_Disjunctive-MIRCut:Disjunctive 0
CPXPARAM_MIP_Cuts_Disjunctive-MIRCut:MIRCut 0
28
Node Left Objective IInf Best_Integer Best_Bound ItCnt Gap
0+ 0 nan nan 133.7092 0.0000 nan 100.00%
0+ 0 nan nan 129.6212 0.0000 nan 100.00%
0+ 0 nan nan 108.6480 0.0000 nan 100.00%
0 0 11.6826 21 108.6480 11.6826 155 89.25%
0 0 19.6300 25 108.6480 Disjcuts:13 189 81.93%
0 0 23.1358 27 108.6480 Disjcuts:21 214 78.71%
0 0 24.5580 28 108.6480 Disjcuts:13 239 77.40%
0 0 26.4962 32 108.6480 Disjcuts:12 257 75.61%
0 0 28.3557 32 108.6480 Disjcuts:15 280 73.90%
0+ 0 nan nan 102.6952 28.3557 nan 72.39%
0+ 0 nan nan 82.0883 28.3557 nan 65.46%
0 2 28.3557 32 82.0883 28.4424 280 65.35%
CPXPARAM_MIP_Cuts_Disjunctive-MIRCut:Disjunctive 0
CPXPARAM_MIP_Cuts_Disjunctive-MIRCut:MIRCut 18
29
Node Left Objective IInf Best_Integer Best_Bound ItCnt Gap
0+ 0 nan nan 133.7092 0.0000 nan 100.00%
0+ 0 nan nan 129.6212 0.0000 nan 100.00%
0 0 0.0000 27 129.6212 0.0000 131 100.00%
0+ 0 nan nan 72.3650 0.0000 nan 100.00%
0+ 0 nan nan 64.1539 0.0000 nan 100.00%
0+ 0 nan nan 53.0370 0.0000 nan 100.00%
0+ 0 nan nan 41.9504 0.0000 nan 100.00%
0 2 0.0000 23 41.9504 0.0000 131 100.00%
CPXPARAM_MIP_Cuts_Disjunctive-MIRCut:Disjunctive 0
CPXPARAM_MIP_Cuts_Disjunctive-MIRCut:MIRCut 0
30
Node Left Objective IInf Best_Integer Best_Bound ItCnt Gap
0+ 0 nan nan 133.7092 0.0000 nan 100.00%
0+ 0 nan nan 114.7297 0.0000 nan 100.00%
0 0 24.4161 16 114.7297 24.4161 157 78.72%
0+ 0 nan nan 105.4216 24.4161 nan 76.84%
0 0 29.2367 19 105.4216 Disjcuts:11 189 72.27%
0 0 32.5377 22 105.4216 Disjcuts:14 221 69.14%
0 0 34.1815 24 105.4216 Disjcuts:11 246 67.58%
0 0 35.0630 26 105.4216 Disjcuts:14 271 66.74%
0 0 37.3375 27 105.4216 Disjcuts:14 315 64.58%
0+ 0 nan nan 94.2982 37.3375 nan 60.40%
0 0 37.8240 27 94.2982 Disjcuts:1 324 59.89%
0+ 0 nan nan 78.9338 37.8240 nan 52.08%
0+ 0 nan nan 75.4794 37.8240 nan 49.89%
0 2 37.8240 27 75.4794 37.9866 324 49.67%
CPXPARAM_MIP_Cuts_Disjunctive-MIRCut:Disjunctive 0
CPXPARAM_MIP_Cuts_Disjunctive-MIRCut:MIRCut 20
31
Node Left Objective IInf Best_Integer Best_Bound ItCnt Gap
0+ 0 nan nan 133.7092 0.0000 nan 100.00%
0+ 0 nan nan 114.7297 0.0000 nan 100.00%
0 0 0.0000 23 114.7297 0.0000 118 100.00%
0+ 0 nan nan 56.4594 0.0000 nan 100.00%
0+ 0 nan nan 55.7068 0.0000 nan 100.00%
0+ 0 nan nan 38.3245 0.0000 nan 100.00%
0+ 0 nan nan 35.9797 0.0000 nan 100.00%
0 2 0.0000 15 35.9797 0.0000 118 100.00%
CPXPARAM_MIP_Cuts_Disjunctive-MIRCut:Disjunctive 0
CPXPARAM_MIP_Cuts_Disjunctive-MIRCut:MIRCut 0
32
Node Left Objective IInf Best_Integer Best_Bound ItCnt Gap
0+ 0 nan nan 110.7059 0.0000 nan 100.00%
0+ 0 nan nan 93.8685 0.0000 nan 100.00%
0+ 0 nan nan 88.1652 0.0000 nan 100.00%
0 0 12.8255 21 88.1652 12.8255 166 85.45%
0 0 14.8437 27 88.1652 Disjcuts:13 195 83.16%
0+ 0 nan nan 70.2929 14.8437 nan 78.88%
0 0 17.8157 26 70.2929 Disjcuts:20 229 74.66%
0 0 19.3787 27 70.2929 Disjcuts:6 249 72.43%
0 0 20.6826 30 70.2929 Disjcuts:6 265 70.58%
0 0 22.5720 29 70.2929 Disjcuts:13 295 67.89%
0 0 22.7489 31 70.2929 Disjcuts:3 306 67.64%
0+ 0 nan nan 64.9008 22.7489 nan 64.95%
0 2 22.7489 31 64.9008 23.0192 306 64.53%
CPXPARAM_MIP_Cuts_Disjunctive-MIRCut:Disjunctive 0
CPXPARAM_MIP_Cuts_Disjunctive-MIRCut:MIRCut 17
33
Node Left Objective IInf Best_Integer Best_Bound ItCnt Gap
0+ 0 nan nan 110.7059 0.0000 nan 100.00%
0+ 0 nan nan 93.8685 0.0000 nan 100.00%
0 0 0.0000 27 93.8685 0.0000 120 100.00%
0+ 0 nan nan 49.9720 0.0000 nan 100.00%
0 0 0.0000 22 49.9720 Disjcuts:6 132 100.00%
0 0 0.0000 22 49.9720 Disjcuts:12 165 100.00%
0 0 0.0000 21 49.9720 Disjcuts:4 177 100.00%
0+ 0 nan nan 42.7222 0.0000 nan 100.00%
0 2 0.0000 20 42.7222 0.0000 177 100.00%
CPXPARAM_MIP_Cuts_Disjunctive-MIRCut:Disjunctive 0
CPXPARAM_MIP_Cuts_Disjunctive-MIRCut:MIRCut 0
34
Node Left Objective IInf Best_Integer Best_Bound ItCnt Gap
0+ 0 nan nan 110.7059 0.0000 nan 100.00%
0+ 0 nan nan 74.9711 0.0000 nan 100.00%
0 0 0.0000 23 74.9711 0.0000 152 100.00%
0+ 0 nan nan 70.1819 0.0000 nan 100.00%
0 0 2.8963 24 70.1819 Disjcuts:20 221 95.87%
0+ 0 nan nan 60.3772 2.8963 nan 95.20%
0 0 7.2963 25 60.3772 Disjcuts:19 271 87.92%
0 0 8.1377 26 60.3772 Disjcuts:10 299 86.52%
0 0 8.7311 28 60.3772 Disjcuts:12 324 85.54%
0 0 9.4261 26 60.3772 Disjcuts:9 358 84.39%
0 0 9.4456 29 60.3772 Disjcuts:2 368 84.36%
0 0 9.4656 29 60.3772 Disjcuts:1 375 84.32%
0+ 0 nan nan 50.7026 9.4656 nan 81.33%
0+ 0 nan nan 46.4560 9.4656 nan 79.62%
0 2 9.4656 29 46.4560 9.5440 375 79.46%
CPXPARAM_MIP_Cuts_Disjunctive-MIRCut:Disjunctive 0
CPXPARAM_MIP_Cuts_Disjunctive-MIRCut:MIRCut 14
35
Node Left Objective IInf Best_Integer Best_Bound ItCnt Gap
0+ 0 nan nan 110.7059 0.0000 nan 100.00%
0+ 0 nan nan 74.9711 0.0000 nan 100.00%
0 0 0.0000 23 74.9711 0.0000 115 100.00%
0+ 0 nan nan 29.6008 0.0000 nan 100.00%
0 0 0.0000 17 29.6008 Disjcuts:2 138 100.00%
0 0 0.0000 18 29.6008 Disjcuts:12 167 100.00%
0 0 0.0000 16 29.6008 Disjcuts:2 172 100.00%
0+ 0 nan nan 23.2299 0.0000 nan 100.00%
0 2 0.0000 16 23.2299 0.0000 172 100.00%
CPXPARAM_MIP_Cuts_Disjunctive-MIRCut:Disjunctive 0
CPXPARAM_MIP_Cuts_Disjunctive-MIRCut:MIRCut 2
36
Node Left Objective IInf Best_Integer Best_Bound ItCnt Gap
0+ 0 nan nan 123.7135 0.0000 nan 100.00%
0+ 0 nan nan 108.6148 0.0000 nan 100.00%
0+ 0 nan nan 99.0366 0.0000 nan 100.00%
0 0 0.0000 27 99.0366 0.0000 139 100.00%
0+ 0 nan nan 98.7082 0.0000 nan 100.00%
0 0 2.8951 31 98.7082 Disjcuts:22 212 97.07%
0 0 7.3564 29 98.7082 Disjcuts:15 238 92.55%
0 0 7.9524 32 98.7082 Disjcuts:13 261 91.94%
0 0 8.7548 33 98.7082 Disjcuts:7 287 91.13%
0 0 9.2136 34 98.7082 Disjcuts:9 313 90.67%
0+ 0 nan nan 80.4414 9.2136 nan 88.55%
0+ 0 nan nan 58.4161 9.2136 nan 84.23%
0 2 9.2136 34 58.4161 9.5093 313 83.72%
CPXPARAM_MIP_Cuts_Disjunctive-MIRCut:Disjunctive 0
CPXPARAM_MIP_Cuts_Disjunctive-MIRCut:MIRCut 16
37
Node Left Objective IInf Best_Integer Best_Bound ItCnt Gap
0+ 0 nan nan 123.7135 0.0000 nan 100.00%
0+ 0 nan nan 108.6148 0.0000 nan 100.00%
0 0 0.0000 27 108.6148 0.0000 124 100.00%
0+ 0 nan nan 71.2777 0.0000 nan 100.00%
0 0 0.0000 19 71.2777 Disjcuts:1 132 100.00%
0+ 0 nan nan 58.7503 0.0000 nan 100.00%
0 0 0.0000 19 58.7503 Disjcuts:11 166 100.00%
0 0 0.0000 21 58.7503 Disjcuts:14 221 100.00%
0+ 0 nan nan 48.1280 0.0000 nan 100.00%
0+ 0 nan nan 37.5096 0.0000 nan 100.00%
0+ 0 nan nan 34.8428 0.0000 nan 100.00%
0+ 0 nan nan 30.5313 0.0000 nan 100.00%
0 2 0.0000 18 30.5313 0.0000 221 100.00%
CPXPARAM_MIP_Cuts_Disjunctive-MIRCut:Disjunctive 0
CPXPARAM_MIP_Cuts_Disjunctive-MIRCut:MIRCut 0
38
Node Left Objective IInf Best_Integer Best_Bound ItCnt Gap
0+ 0 nan nan 123.7135 0.0000 nan 100.00%
0+ 0 nan nan 89.1896 0.0000 nan 100.00%
0 0 4.5425 20 89.1896 4.5425 153 94.91%
0+ 0 nan nan 83.5087 4.5425 nan 94.56%
0 0 10.0113 23 83.5087 Disjcuts:17 182 88.01%
0 0 14.0186 24 83.5087 Disjcuts:19 206 83.21%
0 0 15.5829 26 83.5087 Disjcuts:15 227 81.34%
0 0 17.5766 24 83.5087 Disjcuts:18 259 78.95%
0+ 0 nan nan 72.8455 17.5766 nan 75.87%
0 0 18.0423 27 72.8455 Disjcuts:10 274 75.23%
0+ 0 nan nan 50.1610 18.0423 nan 64.03%
0+ 0 nan nan 48.5094 18.0423 nan 62.81%
0 2 18.0423 27 48.5094 18.1288 274 62.63%
CPXPARAM_MIP_Cuts_Disjunctive-MIRCut:Disjunctive 0
CPXPARAM_MIP_Cuts_Disjunctive-MIRCut:MIRCut 14
39
Node Left Objective IInf Best_Integer Best_Bound ItCnt Gap
0+ 0 nan nan 123.7135 0.0000 nan 100.00%
0+ 0 nan nan 89.1896 0.0000 nan 100.00%
0 0 0.0000 23 89.1896 0.0000 129 100.00%
0+ 0 nan nan 59.4311 0.0000 nan 100.00%
0+ 0 nan nan 35.2998 0.0000 nan 100.00%
0+ 0 nan nan 25.4616 0.0000 nan 100.00%
0 2 0.0000 15 25.4616 0.0000 129 100.00%
CPXPARAM_MIP_Cuts_Disjunctive-MIRCut:Disjunctive 0
CPXPARAM_MIP_Cuts_Disjunctive-MIRCut:MIRCut 0
